NAME : X_26_seed_123_id_11
TYPE : CVRP
DIMENSION : 219
EDGE_WEIGHT_TYPE : EUC_2D
CAPACITY : 3
NODE_COORD_SECTION
1	0	0
2	624	733
3	468	773
4	905	140
5	762	652
6	956	36
7	716	371
8	500	458
9	523	310
10	123	683
11	378	635
12	972	209
13	826	582
14	524	120
15	870	867
16	519	957
17	137	519
18	376	805
19	816	520
20	216	672
21	952	446
22	176	779
23	913	341
24	950	742
25	815	485
26	711	375
27	896	840
28	899	403
29	894	507
30	1000	638
31	239	73
32	75	497
33	795	218
34	469	545
35	232	475
36	42	907
37	318	204
38	381	735
39	861	157
40	746	277
41	354	548
42	802	766
43	171	487
44	509	563
45	700	978
46	332	759
47	80	66
48	498	275
49	960	749
50	473	538
51	890	168
52	449	214
53	81	62
54	359	274
55	917	956
56	503	238
57	452	918
58	683	734
59	974	923
60	664	221
61	431	708
62	523	106
63	238	537
64	566	39
65	874	409
66	483	765
67	199	87
68	784	758
69	629	184
70	809	423
71	355	945
72	546	278
73	664	779
74	66	678
75	9	736
76	29	795
77	610	17
78	757	776
79	524	274
80	589	796
81	479	247
82	302	856
83	855	616
84	872	994
85	88	939
86	336	963
87	572	331
88	937	480
89	723	895
90	377	95
91	327	345
92	510	21
93	874	675
94	691	85
95	448	916
96	435	809
97	494	571
98	792	633
99	705	417
100	827	103
101	997	667
102	983	46
103	224	66
104	349	518
105	255	998
106	820	888
107	748	257
108	816	482
109	351	278
110	727	727
111	107	273
112	261	356
113	161	361
114	752	675
115	885	776
116	859	840
117	75	690
118	251	840
119	107	677
120	250	60
121	887	23
122	623	610
123	146	414
124	424	786
125	3	46
126	182	456
127	571	850
128	608	209
129	793	573
130	499	422
131	928	589
132	179	510
133	289	918
134	159	966
135	422	459
136	69	132
137	130	135
138	294	897
139	612	209
140	818	646
141	29	617
142	607	705
143	512	910
144	213	308
145	870	691
146	303	161
147	858	246
148	241	754
149	532	979
150	441	315
151	195	826
152	977	376
153	289	200
154	296	356
155	383	999
156	36	936
157	741	631
158	585	806
159	820	366
160	588	36
161	838	965
162	914	366
163	536	585
164	469	636
165	447	870
166	830	474
167	86	785
168	177	301
169	65	799
170	841	25
171	886	564
172	383	634
173	479	350
174	969	753
175	608	675
176	497	10
177	864	505
178	603	255
179	269	659
180	423	139
181	32	774
182	597	719
183	784	734
184	829	834
185	440	854
186	66	443
187	228	187
188	8	942
189	729	472
190	402	932
191	997	560
192	518	911
193	239	824
194	885	69
195	167	657
196	123	282
197	410	970
198	875	16
199	639	516
200	167	884
201	942	742
202	885	287
203	830	350
204	413	17
205	869	130
206	816	497
207	711	310
208	157	915
209	271	119
210	147	405
211	249	841
212	789	379
213	677	36
214	468	839
215	898	636
216	475	370
217	153	426
218	698	836
219	734	339
DEMAND_SECTION
1	0
2	1
3	1
4	1
5	1
6	1
7	1
8	1
9	1
10	1
11	1
12	1
13	1
14	1
15	1
16	1
17	1
18	1
19	1
20	1
21	1
22	1
23	1
24	1
25	1
26	1
27	1
28	1
29	1
30	1
31	1
32	1
33	1
34	1
35	1
36	1
37	1
38	1
39	1
40	1
41	1
42	1
43	1
44	1
45	1
46	1
47	1
48	1
49	1
50	1
51	1
52	1
53	1
54	1
55	1
56	1
57	1
58	1
59	1
60	1
61	1
62	1
63	1
64	1
65	1
66	1
67	1
68	1
69	1
70	1
71	1
72	1
73	1
74	1
75	1
76	1
77	1
78	1
79	1
80	1
81	1
82	1
83	1
84	1
85	1
86	1
87	1
88	1
89	1
90	1
91	1
92	1
93	1
94	1
95	1
96	1
97	1
98	1
99	1
100	1
101	1
102	1
103	1
104	1
105	1
106	1
107	1
108	1
109	1
110	1
111	1
112	1
113	1
114	1
115	1
116	1
117	1
118	1
119	1
120	1
121	1
122	1
123	1
124	1
125	1
126	1
127	1
128	1
129	1
130	1
131	1
132	1
133	1
134	1
135	1
136	1
137	1
138	1
139	1
140	1
141	1
142	1
143	1
144	1
145	1
146	1
147	1
148	1
149	1
150	1
151	1
152	1
153	1
154	1
155	1
156	1
157	1
158	1
159	1
160	1
161	1
162	1
163	1
164	1
165	1
166	1
167	1
168	1
169	1
170	1
171	1
172	1
173	1
174	1
175	1
176	1
177	1
178	1
179	1
180	1
181	1
182	1
183	1
184	1
185	1
186	1
187	1
188	1
189	1
190	1
191	1
192	1
193	1
194	1
195	1
196	1
197	1
198	1
199	1
200	1
201	1
202	1
203	1
204	1
205	1
206	1
207	1
208	1
209	1
210	1
211	1
212	1
213	1
214	1
215	1
216	1
217	1
218	1
219	1
DEPOT_SECTION
1
-1
EOF
